0 1341
1 1325
2 1269
3 1269
4 1256
5 1198
6 1198
7 1198
8 1168
9 1168
10 1168
11 1168
12 1126
13 1126
14 1126
15 1095
16 1095
17 1095
18 1095
19 1095
20 1095
21 1095
22 1095
23 1095
24 1095
25 1095
26 1095
27 1095
28 1095
29 1095
30 1095
31 1095
32 1095
33 1095
34 1095
35 1095
36 1095
37 1095
38 1095
39 1095
40 1084
41 1084
42 1084
43 1084
44 1076
45 1069
46 1069
47 1055
48 1055
49 1046
50 1026
51 1018
52 1017
53 1017
54 1017
55 978
56 978
57 978
58 978
59 978
60 978
61 948
62 948
63 941
64 941
65 921
66 921
67 921
68 921
69 921
70 917
71 868
72 868
73 868
74 868
75 868
76 868
77 868
78 857
79 835
80 835
81 835
82 835
83 834
84 832
85 807
86 802
87 764
88 764
89 764
90 764
91 764
92 757
93 757
94 757
95 753
96 753
97 751
98 746
99 745
100 745
101 735
102 735
103 728
104 728
105 726
106 726
107 721
108 714
109 706
110 683
111 683
112 683
113 676
114 667
115 667
116 667
117 667
118 664
119 664
120 657
121 656
122 649
123 647
124 632
125 632
126 630
127 630
128 621
129 621
130 618
131 615
132 613
133 613
134 613
135 611
136 609
137 604
138 604
139 602
140 602
141 602
142 601
143 601
144 600
145 600
146 600
147 600
148 600
149 600
150 596
151 596
152 596
153 596
154 596
155 596
156 596
157 596
158 596
159 596
160 596
161 596
162 596
163 596
164 596
165 596
166 596
167 596
168 596
169 596
170 596
171 596
172 596
173 596
174 596
175 596
176 596
177 596
178 596
179 596
180 596
181 596
182 596
183 596
184 596
185 596
186 596
187 596
188 596
189 596
190 596
191 596
192 596
193 596
194 596
195 596
196 596
197 596
198 596
199 596
200 596
201 596
202 596
203 596
204 596
205 596
206 596
207 596
208 596
209 596
210 596
211 596
212 596
213 596
214 596
215 596
216 596
217 596
218 596
219 596
220 596
221 596
222 596
223 596
224 596
225 596
226 596
227 596
228 596
229 596
230 596
231 596
232 596
233 596
234 596
235 596
236 596
237 596
238 596
239 596
240 596
241 596
242 596
243 596
244 596
245 596
246 596
247 596
248 596
249 596
